experiment/data/lkh-res/Vrp-Set-X-n351/Vrp-Set-X-n351-lkh/0.lkh1.vrp
NAME : 0
COMMENT : CVRP Instance
TYPE : CVRP
DIMENSION : 351
EDGE_WEIGHT_TYPE : EUC_2D
CAPACITY : 436
NODE_COORD_SECTION
1	50000	50000
2	74000	44200
3	26100	71000
4	57800	52200
5	56200	50900
6	79500	42500
7	63600	46300
8	64500	61700
9	59500	52400
10	64900	59900
11	74500	25200
12	18000	75700
13	59000	59800
14	33200	77500
15	54400	55100
16	100000	44400
17	58100	52100
18	24000	60900
19	70000	46800
20	73500	57900
21	40300	56900
22	35200	90500
23	73300	35200
24	28900	70500
25	59800	24900
26	56500	57000
27	71100	33600
28	81600	49700
29	76900	41100
30	40900	65100
31	23100	74200
32	57500	55500
33	56700	47700
34	69300	53700
35	52100	53400
36	45700	41400
37	82600	45000
38	63800	61700
39	24500	74400
40	23500	85900
41	23300	82100
42	86300	45500
43	73900	48000
44	31100	71700
45	56700	37300
46	75300	42700
47	54700	49300
48	73200	38200
49	66400	51100
50	94500	31600
51	25000	77000
52	59800	49300
53	26200	65300
54	56800	55800
55	87700	80800
56	39500	79600
57	46700	73200
58	68500	32700
59	26000	91000
60	57100	64800
61	74700	39800
62	57100	65000
63	54100	44200
64	84100	46600
65	74400	72500
66	66200	34900
67	68600	54300
68	18400	77600
69	17700	77000
70	66400	55900
71	80200	44600
72	11000	55900
73	66200	56600
74	60500	54400
75	28700	67100
76	55600	73800
77	61500	51100
78	29300	69300
79	37500	67100
80	38300	61400
81	83400	41700
82	70400	39700
83	25500	69600
84	70800	38800
85	79900	17200
86	29800	53100
87	74000	45600
88	66100	58200
89	66400	39800
90	65900	46100
91	63000	29000
92	26700	72100
93	68200	47400
94	26900	63900
95	57700	36100
96	54000	55000
97	37000	73300
98	54600	58700
99	70800	41200
100	72400	57200
101	41600	68800
102	54400	79400
103	71400	47800
104	91600	50200
105	31300	77000
106	46400	36100
107	35600	92100
108	77600	47000
109	47700	72100
110	73300	44700
111	72400	49500
112	27200	79200
113	49100	47100
114	34800	50500
115	16800	30900
116	59500	62800
117	22700	72000
118	78100	58500
119	22800	68000
120	80700	59500
121	58200	50300
122	32700	60300
123	50500	58600
124	23500	78800
125	13500	67700
126	71600	44000
127	22100	67800
128	63300	42100
129	82600	47600
130	87900	35000
131	73800	47500
132	67600	44600
133	38800	66900
134	46500	69000
135	54300	42200
136	67500	54400
137	77000	61300
138	30900	59000
139	43400	59400
140	64700	55100
141	46800	40500
142	0	86300
143	66300	58200
144	20900	75500
145	96600	51600
146	58000	59300
147	22100	55800
148	23000	59400
149	32900	76800
150	78600	52300
151	63600	51200
152	70400	47400
153	81900	37600
154	51600	47200
155	72400	50500
156	56500	50100
157	40400	58900
158	66300	52700
159	90100	69300
160	25400	64000
161	72600	81300
162	25300	70800
163	26900	73000
164	82300	51900
165	58600	68900
166	73900	42100
167	70600	51900
168	72600	42300
169	61400	52500
170	23900	69000
171	64300	32800
172	79300	42600
173	22100	73100
174	29000	73200
175	70900	31000
176	65400	49200
177	74500	37000
178	45900	63900
179	61800	57000
180	61300	52800
181	80800	35900
182	65200	43400
183	25800	63700
184	72200	42100
185	83700	32100
186	6800	54400
187	19100	68600
188	53500	57800
189	24200	62400
190	37100	38700
191	83500	75700
192	67100	44500
193	76400	42500
194	77100	48000
195	24200	76300
196	67000	52000
197	58000	48200
198	29200	82300
199	54700	44300
200	80700	78000
201	52000	62200
202	79700	35600
203	55500	48400
204	74700	34000
205	22800	84600
206	76000	44600
207	73400	45100
208	60400	27700
209	79000	40500
210	68000	44500
211	74100	46000
212	24400	75800
213	63200	53600
214	60000	50300
215	56200	51800
216	67200	39800
217	62000	42500
218	85200	48900
219	57700	55300
220	23500	75500
221	87900	35900
222	18700	72500
223	72400	32800
224	77500	45100
225	28300	66000
226	19500	57200
227	83000	45700
228	20500	73900
229	73300	34100
230	88400	41800
231	43400	45200
232	71600	45800
233	49500	57300
234	57900	54500
235	22800	72500
236	60400	41700
237	80600	34700
238	42000	73000
239	62600	49900
240	55500	44900
241	32600	59800
242	55100	55400
243	17700	98300
244	79400	43000
245	77100	57300
246	13500	68300
247	48700	29100
248	23900	70300
249	78900	47700
250	27300	75200
251	52100	47800
252	67700	45600
253	50500	32700
254	45300	74400
255	32100	75300
256	50900	49700
257	74900	45100
258	63300	81500
259	79600	42900
260	34100	67700
261	79700	48500
262	57100	64900
263	27600	63100
264	85700	43900
265	58700	77600
266	75000	41200
267	75200	39300
268	33800	65700
269	20600	65100
270	17000	71600
271	83100	44100
272	10400	69400
273	80900	56900
274	59100	40700
275	60500	54900
276	20100	62500
277	30000	67600
278	54800	47800
279	63700	45000
280	70600	46300
281	78800	58300
282	61100	57400
283	17600	76100
284	40400	50800
285	79800	57300
286	61400	41500
287	25700	70700
288	78000	39400
289	72900	47200
290	54700	46200
291	37900	81700
292	53900	55600
293	49800	90900
294	27500	70600
295	72600	42600
296	26900	63700
297	78000	43900
298	72400	47800
299	83200	40500
300	22900	70000
301	22300	69200
302	51200	42800
303	62300	44500
304	76300	48100
305	81700	46300
306	75500	41800
307	65500	52200
308	72000	47100
309	28600	64500
310	32000	74500
311	11100	60600
312	28900	73700
313	63600	26000
314	18400	68000
315	67900	59000
316	25600	61800
317	20000	67100
318	26400	67700
319	32600	68100
320	10200	64000
321	22900	72900
322	55300	26600
323	51900	52600
324	69200	55200
325	70900	50900
326	54700	65500
327	79400	42100
328	18900	72800
329	56500	67600
330	32600	46200
331	68700	33400
332	29800	70500
333	58200	47800
334	73700	57900
335	45800	89500
336	66300	39100
337	39400	63900
338	35200	78200
339	62100	30300
340	26800	62900
341	44000	83100
342	74800	59300
343	40000	54700
344	26800	72100
345	22600	64600
346	57800	61600
347	64800	37700
348	44600	57400
349	50200	57100
350	57400	59300
351	45900	46600
DEMAND_SECTION
1	0
2	43
3	82
4	57
5	51
6	29
7	55
8	71
9	35
10	28
11	36
12	18
13	42
14	79
15	88
16	68
17	99
18	10
19	11
20	77
21	68
22	44
23	17
24	60
25	33
26	30
27	37
28	87
29	18
30	6
31	42
32	1
33	22
34	78
35	94
36	65
37	88
38	28
39	29
40	34
41	87
42	47
43	53
44	44
45	34
46	94
47	70
48	41
49	28
50	80
51	32
52	20
53	16
54	70
55	22
56	96
57	81
58	23
59	46
60	2
61	56
62	45
63	66
64	7
65	64
66	73
67	51
68	64
69	81
70	86
71	52
72	76
73	26
74	30
75	3
76	95
77	75
78	85
79	50
80	41
81	1
82	42
83	1
84	47
85	34
86	13
87	1
88	31
89	56
90	63
91	39
92	87
93	8
94	67
95	66
96	11
97	38
98	94
99	57
100	43
101	56
102	18
103	77
104	39
105	30
106	42
107	90
108	62
109	95
110	66
111	84
112	9
113	96
114	63
115	19
116	51
117	50
118	89
119	9
120	6
121	34
122	15
123	20
124	33
125	3
126	87
127	96
128	53
129	24
130	7
131	13
132	94
133	44
134	40
135	56
136	62
137	78
138	50
139	16
140	35
141	21
142	54
143	22
144	85
145	92
146	8
147	90
148	21
149	91
150	12
151	98
152	62
153	95
154	45
155	92
156	30
157	67
158	21
159	8
160	73
161	99
162	76
163	25
164	6
165	71
166	68
167	43
168	86
169	46
170	19
171	85
172	5
173	82
174	64
175	20
176	9
177	66
178	43
179	17
180	48
181	86
182	98
183	22
184	39
185	16
186	18
187	59
188	70
189	30
190	86
191	54
192	12
193	41
194	67
195	93
196	70
197	66
198	17
199	92
200	52
201	15
202	13
203	100
204	62
205	4
206	12
207	30
208	23
209	96
210	32
211	3
212	22
213	63
214	64
215	33
216	79
217	76
218	1
219	23
220	42
221	20
222	96
223	90
224	11
225	29
226	47
227	23
228	78
229	57
230	4
231	54
232	1
233	61
234	100
235	64
236	98
237	18
238	13
239	4
240	68
241	62
242	43
243	52
244	35
245	51
246	25
247	86
248	22
249	53
250	58
251	87
252	39
253	64
254	67
255	66
256	11
257	41
258	80
259	16
260	19
261	72
262	42
263	84
264	72
265	63
266	45
267	80
268	2
269	49
270	83
271	96
272	83
273	40
274	40
275	65
276	77
277	76
278	96
279	31
280	7
281	25
282	56
283	55
284	49
285	91
286	14
287	38
288	51
289	55
290	33
291	76
292	84
293	40
294	49
295	34
296	7
297	99
298	13
299	51
300	65
301	28
302	38
303	60
304	9
305	9
306	90
307	48
308	39
309	68
310	93
311	24
312	77
313	69
314	60
315	30
316	64
317	28
318	55
319	57
320	73
321	48
322	70
323	6
324	64
325	88
326	40
327	58
328	47
329	47
330	69
331	80
332	79
333	82
334	93
335	48
336	87
337	47
338	57
339	1
340	10
341	54
342	31
343	17
344	72
345	65
346	36
347	14
348	74
349	5
350	3
351	77
DEPOT_SECTION
1
-1
EOF
