experiment/data/lkh-res/Vrp-Set-X-n351/Vrp-Set-X-n351-lkh/0.lkh1.tour
NAME : 0.2663755.tour
COMMENT : Length = 2663755
COMMENT : Found by LKH-3 [Keld Helsgaun] Tue Apr  9 07:21:10 2024
TYPE : TOUR
DIMENSION : 390
TOUR_SECTION
1
113
351
302
135
199
63
370
279
90
93
152
111
155
325
239
354
110
2
46
193
29
306
266
295
386
234
219
275
74
9
17
5
156
365
201
326
329
165
62
262
60
346
13
146
26
242
96
362
95
339
91
171
58
331
66
240
374
83
248
117
235
321
173
228
31
294
352
250
112
41
124
51
195
212
39
344
371
233
123
134
109
57
254
101
361
207
257
206
297
305
129
28
261
249
176
381
115
186
72
311
320
226
147
148
86
284
382
315
342
137
120
285
281
118
245
49
357
169
34
334
20
100
324
140
384
310
255
149
14
338
97
30
385
54
32
282
179
38
8
10
88
143
73
70
379
138
316
160
183
94
296
263
241
366
273
104
145
16
230
264
42
64
218
164
150
167
368
139
337
133
79
260
319
78
277
80
378
53
270
283
142
272
246
125
276
189
18
380
153
299
81
271
227
37
71
224
211
19
390
256
252
126
166
168
184
99
84
375
213
136
67
196
158
307
151
52
387
348
157
21
114
330
190
358
347
336
89
216
210
132
192
303
364
215
4
77
214
121
197
333
33
367
105
198
205
40
243
59
107
22
291
178
383
258
161
200
191
55
159
65
116
350
359
61
267
288
209
327
6
172
259
244
87
232
280
373
75
3
287
162
300
170
318
225
309
355
154
251
290
278
203
47
356
35
188
98
292
15
323
353
44
174
312
163
92
24
332
363
27
175
223
229
204
23
177
48
82
372
208
25
313
11
85
50
221
130
185
237
181
202
389
122
119
127
301
187
314
317
269
345
340
343
376
238
56
341
335
293
102
265
76
349
369
308
289
131
108
194
304
43
298
103
180
377
231
36
141
106
253
247
322
45
388
274
236
286
217
128
182
7
360
222
328
12
69
68
144
220
268
-1
EOF
